QPLIB_3931
QBL
minimize
316 # number of variables
80 # number of constraints
2241 # number of quadratic terms in objective
2 1 2.0
3 1 0.66
4 1 1.32
5 1 1.0
6 1 0.33
7 1 0.66
8 1 1.6
9 1 0.528
10 1 1.056
11 1 1.6
12 1 0.528
13 1 1.056
14 1 0.6
15 1 0.198
16 1 0.396
5 2 2.0
6 2 0.66
7 2 1.32
8 2 1.6
9 2 0.528
10 2 1.056
11 2 1.6
12 2 0.528
13 2 1.056
17 2 0.66
18 2 1.32
19 2 1.0
20 2 0.33
21 2 0.66
22 2 1.6
23 2 0.528
24 2 1.056
5 3 0.66
6 3 2.0
7 3 0.66
8 3 0.528
9 3 1.6
10 3 0.528
11 3 0.528
12 3 1.6
13 3 0.528
17 3 2.0
18 3 0.66
19 3 0.33
20 3 1.0
21 3 0.33
22 3 0.528
23 3 1.6
24 3 0.528
5 4 1.32
6 4 0.66
7 4 2.0
8 4 1.056
9 4 0.528
10 4 1.6
11 4 1.056
12 4 0.528
13 4 1.6
17 4 0.66
18 4 2.0
19 4 0.66
20 4 0.33
21 4 1.0
22 4 1.056
23 4 0.528
24 4 1.6
11 5 1.6
12 5 0.528
13 5 1.056
17 5 0.33
18 5 0.66
19 5 2.0
20 5 0.66
21 5 1.32
22 5 1.6
23 5 0.528
24 5 1.056
25 5 1.6
26 5 0.528
27 5 1.056
11 6 0.528
12 6 1.6
13 6 0.528
17 6 1.0
18 6 0.33
19 6 0.66
20 6 2.0
21 6 0.66
22 6 0.528
23 6 1.6
24 6 0.528
25 6 0.528
26 6 1.6
27 6 0.528
11 7 1.056
12 7 0.528
13 7 1.6
17 7 0.33
18 7 1.0
19 7 1.32
20 7 0.66
21 7 2.0
22 7 1.056
23 7 0.528
24 7 1.6
25 7 1.056
26 7 0.528
27 7 1.6
11 8 2.0
12 8 0.66
13 8 1.32
17 8 0.528
18 8 1.056
22 8 1.0
23 8 0.33
24 8 0.66
28 8 0.6
29 8 0.198
30 8 0.396
31 8 0.6
32 8 0.198
33 8 0.396
34 8 0.6
35 8 0.198
36 8 0.396
11 9 0.66
12 9 2.0
13 9 0.66
17 9 1.6
18 9 0.528
22 9 0.33
23 9 1.0
24 9 0.33
28 9 0.198
29 9 0.6
30 9 0.198
31 9 0.198
32 9 0.6
33 9 0.198
34 9 0.198
35 9 0.6
36 9 0.198
11 10 1.32
12 10 0.66
13 10 2.0
17 10 0.528
18 10 1.6
22 10 0.66
23 10 0.33
24 10 1.0
28 10 0.396
29 10 0.198
30 10 0.6
31 10 0.396
32 10 0.198
33 10 0.6
34 10 0.396
35 10 0.198
36 10 0.6
17 11 0.528
18 11 1.056
22 11 2.0
23 11 0.66
24 11 1.32
25 11 1.0
26 11 0.33
27 11 0.66
28 11 0.6
29 11 0.198
30 11 0.396
31 11 0.6
32 11 0.198
33 11 0.396
37 11 0.6
38 11 0.198
39 11 0.396
17 12 1.6
18 12 0.528
22 12 0.66
23 12 2.0
24 12 0.66
25 12 0.33
26 12 1.0
27 12 0.33
28 12 0.198
29 12 0.6
30 12 0.198
31 12 0.198
32 12 0.6
33 12 0.198
37 12 0.198
38 12 0.6
39 12 0.198
17 13 0.528
18 13 1.6
22 13 1.32
23 13 0.66
24 13 2.0
25 13 0.66
26 13 0.33
27 13 1.0
28 13 0.396
29 13 0.198
30 13 0.6
31 13 0.396
32 13 0.198
33 13 0.6
37 13 0.396
38 13 0.198
39 13 0.6
17 14 0.198
18 14 0.396
34 14 1.6
35 14 0.528
36 14 1.056
40 14 0.6
41 14 0.198
42 14 0.396
43 14 1.0
44 14 0.33
45 14 0.66
46 14 0.6
47 14 0.198
48 14 0.396
49 14 2.0
50 14 0.66
51 14 1.32
52 14 1.6
53 14 0.528
54 14 1.056
17 15 0.6
18 15 0.198
34 15 0.528
35 15 1.6
36 15 0.528
40 15 0.198
41 15 0.6
42 15 0.198
43 15 0.33
44 15 1.0
45 15 0.33
46 15 0.198
47 15 0.6
48 15 0.198
49 15 0.66
50 15 2.0
51 15 0.66
52 15 0.528
53 15 1.6
54 15 0.528
17 16 0.198
18 16 0.6
34 16 1.056
35 16 0.528
36 16 1.6
40 16 0.396
41 16 0.198
42 16 0.6
43 16 0.66
44 16 0.33
45 16 1.0
46 16 0.396
47 16 0.198
48 16 0.6
49 16 1.32
50 16 0.66
51 16 2.0
52 16 1.056
53 16 0.528
54 16 1.6
22 19 1.6
23 19 0.528
24 19 1.056
25 19 1.6
26 19 0.528
27 19 1.056
22 20 0.528
23 20 1.6
24 20 0.528
25 20 0.528
26 20 1.6
27 20 0.528
22 21 1.056
23 21 0.528
24 21 1.6
25 21 1.056
26 21 0.528
27 21 1.6
25 22 2.0
26 22 0.66
27 22 1.32
31 22 0.6
32 22 0.198
33 22 0.396
37 22 0.6
38 22 0.198
39 22 0.396
55 22 0.6
56 22 0.198
57 22 0.396
25 23 0.66
26 23 2.0
27 23 0.66
31 23 0.198
32 23 0.6
33 23 0.198
37 23 0.198
38 23 0.6
39 23 0.198
55 23 0.198
56 23 0.6
57 23 0.198
25 24 1.32
26 24 0.66
27 24 2.0
31 24 0.396
32 24 0.198
33 24 0.6
37 24 0.396
38 24 0.198
39 24 0.6
55 24 0.396
56 24 0.198
57 24 0.6
37 25 0.6
38 25 0.198
39 25 0.396
55 25 0.6
56 25 0.198
57 25 0.396
37 26 0.198
38 26 0.6
39 26 0.198
55 26 0.198
56 26 0.6
57 26 0.198
37 27 0.396
38 27 0.198
39 27 0.6
55 27 0.396
56 27 0.198
57 27 0.6
31 28 2.0
32 28 0.66
33 28 1.32
37 28 1.0
38 28 0.33
39 28 0.66
58 28 1.6
59 28 0.528
60 28 1.056
61 28 1.6
62 28 0.528
63 28 1.056
64 28 0.6
65 28 0.198
66 28 0.396
31 29 0.66
32 29 2.0
33 29 0.66
37 29 0.33
38 29 1.0
39 29 0.33
58 29 0.528
59 29 1.6
60 29 0.528
61 29 0.528
62 29 1.6
63 29 0.528
64 29 0.198
65 29 0.6
66 29 0.198
31 30 1.32
32 30 0.66
33 30 2.0
37 30 0.66
38 30 0.33
39 30 1.0
58 30 1.056
59 30 0.528
60 30 1.6
61 30 1.056
62 30 0.528
63 30 1.6
64 30 0.396
65 30 0.198
66 30 0.6
37 31 2.0
38 31 0.66
39 31 1.32
55 31 1.0
56 31 0.33
57 31 0.66
58 31 1.6
59 31 0.528
60 31 1.056
61 31 1.6
62 31 0.528
63 31 1.056
67 31 1.6
68 31 0.528
69 31 1.056
37 32 0.66
38 32 2.0
39 32 0.66
55 32 0.33
56 32 1.0
57 32 0.33
58 32 0.528
59 32 1.6
60 32 0.528
61 32 0.528
62 32 1.6
63 32 0.528
67 32 0.528
68 32 1.6
69 32 0.528
37 33 1.32
38 33 0.66
39 33 2.0
55 33 0.66
56 33 0.33
57 33 1.0
58 33 1.056
59 33 0.528
60 33 1.6
61 33 1.056
62 33 0.528
63 33 1.6
67 33 1.056
68 33 0.528
69 33 1.6
49 34 1.6
50 34 0.528
51 34 1.056
52 34 2.0
53 34 0.66
54 34 1.32
64 34 0.6
65 34 0.198
66 34 0.396
70 34 1.0
71 34 0.33
72 34 0.66
73 34 0.6
74 34 0.198
75 34 0.396
49 35 0.528
50 35 1.6
51 35 0.528
52 35 0.66
53 35 2.0
54 35 0.66
64 35 0.198
65 35 0.6
66 35 0.198
70 35 0.33
71 35 1.0
72 35 0.33
73 35 0.198
74 35 0.6
75 35 0.198
49 36 1.056
50 36 0.528
51 36 1.6
52 36 1.32
53 36 0.66
54 36 2.0
64 36 0.396
65 36 0.198
66 36 0.6
70 36 0.66
71 36 0.33
72 36 1.0
73 36 0.396
74 36 0.198
75 36 0.6
55 37 2.0
56 37 0.66
57 37 1.32
61 37 1.6
62 37 0.528
63 37 1.056
67 37 1.6
68 37 0.528
69 37 1.056
76 37 1.6
77 37 0.528
78 37 1.056
55 38 0.66
56 38 2.0
57 38 0.66
61 38 0.528
62 38 1.6
63 38 0.528
67 38 0.528
68 38 1.6
69 38 0.528
76 38 0.528
77 38 1.6
78 38 0.528
55 39 1.32
56 39 0.66
57 39 2.0
61 39 1.056
62 39 0.528
63 39 1.6
67 39 1.056
68 39 0.528
69 39 1.6
76 39 1.056
77 39 0.528
78 39 1.6
43 40 0.6
44 40 0.198
45 40 0.396
46 40 2.0
47 40 0.66
48 40 1.32
49 40 0.6
50 40 0.198
51 40 0.396
79 40 1.0
80 40 2.0
81 40 0.66
82 40 1.32
83 40 0.33
84 40 0.66
43 41 0.198
44 41 0.6
45 41 0.198
46 41 0.66
47 41 2.0
48 41 0.66
49 41 0.198
50 41 0.6
51 41 0.198
79 41 0.33
80 41 0.66
81 41 2.0
82 41 0.66
83 41 1.0
84 41 0.33
43 42 0.396
44 42 0.198
45 42 0.6
46 42 1.32
47 42 0.66
48 42 2.0
49 42 0.396
50 42 0.198
51 42 0.6
79 42 0.66
80 42 1.32
81 42 0.66
82 42 2.0
83 42 0.33
84 42 1.0
49 43 2.0
50 43 0.66
51 43 1.32
52 43 1.6
53 43 0.528
54 43 1.056
70 43 1.6
71 43 0.528
72 43 1.056
79 43 0.6
80 43 0.6
81 43 0.198
82 43 0.396
83 43 0.198
84 43 0.396
85 43 2.0
86 43 0.66
87 43 1.32
88 43 1.6
89 43 0.528
90 43 1.056
49 44 0.66
50 44 2.0
51 44 0.66
52 44 0.528
53 44 1.6
54 44 0.528
70 44 0.528
71 44 1.6
72 44 0.528
79 44 0.198
80 44 0.198
81 44 0.6
82 44 0.198
83 44 0.6
84 44 0.198
85 44 0.66
86 44 2.0
87 44 0.66
88 44 0.528
89 44 1.6
90 44 0.528
49 45 1.32
50 45 0.66
51 45 2.0
52 45 1.056
53 45 0.528
54 45 1.6
70 45 1.056
71 45 0.528
72 45 1.6
79 45 0.396
80 45 0.396
81 45 0.198
82 45 0.6
83 45 0.198
84 45 0.6
85 45 1.32
86 45 0.66
87 45 2.0
88 45 1.056
89 45 0.528
90 45 1.6
49 46 0.6
50 46 0.198
51 46 0.396
80 46 1.0
81 46 0.33
82 46 0.66
49 47 0.198
50 47 0.6
51 47 0.198
80 47 0.33
81 47 1.0
82 47 0.33
49 48 0.396
50 48 0.198
51 48 0.6
80 48 0.66
81 48 0.33
82 48 1.0
52 49 1.6
53 49 0.528
54 49 1.056
70 49 1.6
71 49 0.528
72 49 1.056
80 49 0.6
81 49 0.198
82 49 0.396
85 49 1.0
86 49 0.33
87 49 0.66
52 50 0.528
53 50 1.6
54 50 0.528
70 50 0.528
71 50 1.6
72 50 0.528
80 50 0.198
81 50 0.6
82 50 0.198
85 50 0.33
86 50 1.0
87 50 0.33
52 51 1.056
53 51 0.528
54 51 1.6
70 51 1.056
71 51 0.528
72 51 1.6
80 51 0.396
81 51 0.198
82 51 0.6
85 51 0.66
86 51 0.33
87 51 1.0
64 52 0.6
65 52 0.198
66 52 0.396
70 52 2.0
71 52 0.66
72 52 1.32
73 52 0.6
74 52 0.198
75 52 0.396
88 52 1.0
89 52 0.33
90 52 0.66
91 52 0.6
92 52 0.198
93 52 0.396
64 53 0.198
65 53 0.6
66 53 0.198
70 53 0.66
71 53 2.0
72 53 0.66
73 53 0.198
74 53 0.6
75 53 0.198
88 53 0.33
89 53 1.0
90 53 0.33
91 53 0.198
92 53 0.6
93 53 0.198
64 54 0.396
65 54 0.198
66 54 0.6
70 54 1.32
71 54 0.66
72 54 2.0
73 54 0.396
74 54 0.198
75 54 0.6
88 54 0.66
89 54 0.33
90 54 1.0
91 54 0.396
92 54 0.198
93 54 0.6
67 55 1.6
68 55 0.528
69 55 1.056
76 55 1.6
77 55 0.528
78 55 1.056
67 56 0.528
68 56 1.6
69 56 0.528
76 56 0.528
77 56 1.6
78 56 0.528
67 57 1.056
68 57 0.528
69 57 1.6
76 57 1.056
77 57 0.528
78 57 1.6
61 58 2.0
62 58 0.66
63 58 1.32
67 58 1.0
68 58 0.33
69 58 0.66
94 58 0.6
95 58 0.198
96 58 0.396
97 58 0.6
98 58 0.198
99 58 0.396
61 59 0.66
62 59 2.0
63 59 0.66
67 59 0.33
68 59 1.0
69 59 0.33
94 59 0.198
95 59 0.6
96 59 0.198
97 59 0.198
98 59 0.6
99 59 0.198
61 60 1.32
62 60 0.66
63 60 2.0
67 60 0.66
68 60 0.33
69 60 1.0
94 60 0.396
95 60 0.198
96 60 0.6
97 60 0.396
98 60 0.198
99 60 0.6
67 61 2.0
68 61 0.66
69 61 1.32
76 61 1.0
77 61 0.33
78 61 0.66
94 61 0.6
95 61 0.198
96 61 0.396
67 62 0.66
68 62 2.0
69 62 0.66
76 62 0.33
77 62 1.0
78 62 0.33
94 62 0.198
95 62 0.6
96 62 0.198
67 63 1.32
68 63 0.66
69 63 2.0
76 63 0.66
77 63 0.33
78 63 1.0
94 63 0.396
95 63 0.198
96 63 0.6
73 64 2.0
74 64 0.66
75 64 1.32
91 64 1.0
92 64 0.33
93 64 0.66
97 64 1.6
98 64 0.528
99 64 1.056
100 64 1.6
101 64 0.528
102 64 1.056
73 65 0.66
74 65 2.0
75 65 0.66
91 65 0.33
92 65 1.0
93 65 0.33
97 65 0.528
98 65 1.6
99 65 0.528
100 65 0.528
101 65 1.6
102 65 0.528
73 66 1.32
74 66 0.66
75 66 2.0
91 66 0.66
92 66 0.33
93 66 1.0
97 66 1.056
98 66 0.528
99 66 1.6
100 66 1.056
101 66 0.528
102 66 1.6
76 67 2.0
77 67 0.66
78 67 1.32
103 67 0.6
104 67 0.198
105 67 0.396
76 68 0.66
77 68 2.0
78 68 0.66
103 68 0.198
104 68 0.6
105 68 0.198
76 69 1.32
77 69 0.66
78 69 2.0
103 69 0.396
104 69 0.198
105 69 0.6
73 70 0.6
74 70 0.198
75 70 0.396
85 70 1.6
86 70 0.528
87 70 1.056
88 70 2.0
89 70 0.66
90 70 1.32
91 70 0.6
92 70 0.198
93 70 0.396
106 70 0.6
107 70 0.198
108 70 0.396
73 71 0.198
74 71 0.6
75 71 0.198
85 71 0.528
86 71 1.6
87 71 0.528
88 71 0.66
89 71 2.0
90 71 0.66
91 71 0.198
92 71 0.6
93 71 0.198
106 71 0.198
107 71 0.6
108 71 0.198
73 72 0.396
74 72 0.198
75 72 0.6
85 72 1.056
86 72 0.528
87 72 1.6
88 72 1.32
89 72 0.66
90 72 2.0
91 72 0.396
92 72 0.198
93 72 0.6
106 72 0.396
107 72 0.198
108 72 0.6
91 73 2.0
92 73 0.66
93 73 1.32
97 73 1.6
98 73 0.528
99 73 1.056
100 73 1.6
101 73 0.528
102 73 1.056
106 73 1.0
107 73 0.33
108 73 0.66
109 73 1.6
110 73 0.528
111 73 1.056
91 74 0.66
92 74 2.0
93 74 0.66
97 74 0.528
98 74 1.6
99 74 0.528
100 74 0.528
101 74 1.6
102 74 0.528
106 74 0.33
107 74 1.0
108 74 0.33
109 74 0.528
110 74 1.6
111 74 0.528
91 75 1.32
92 75 0.66
93 75 2.0
97 75 1.056
98 75 0.528
99 75 1.6
100 75 1.056
101 75 0.528
102 75 1.6
106 75 0.66
107 75 0.33
108 75 1.0
109 75 1.056
110 75 0.528
111 75 1.6
103 76 0.6
104 76 0.198
105 76 0.396
103 77 0.198
104 77 0.6
105 77 0.198
103 78 0.396
104 78 0.198
105 78 0.6
80 79 2.0
81 79 0.66
82 79 1.32
85 79 0.6
86 79 0.198
87 79 0.396
83 80 0.66
84 80 1.32
85 80 0.6
86 80 0.198
87 80 0.396
83 81 2.0
84 81 0.66
85 81 0.198
86 81 0.6
87 81 0.198
83 82 0.66
84 82 2.0
85 82 0.396
86 82 0.198
87 82 0.6
85 83 0.198
86 83 0.6
87 83 0.198
85 84 0.396
86 84 0.198
87 84 0.6
88 85 1.6
89 85 0.528
90 85 1.056
88 86 0.528
89 86 1.6
90 86 0.528
88 87 1.056
89 87 0.528
90 87 1.6
91 88 0.6
92 88 0.198
93 88 0.396
106 88 0.6
107 88 0.198
108 88 0.396
91 89 0.198
92 89 0.6
93 89 0.198
106 89 0.198
107 89 0.6
108 89 0.198
91 90 0.396
92 90 0.198
93 90 0.6
106 90 0.396
107 90 0.198
108 90 0.6
100 91 1.6
101 91 0.528
102 91 1.056
106 91 2.0
107 91 0.66
108 91 1.32
109 91 1.6
110 91 0.528
111 91 1.056
112 91 1.6
113 91 0.528
114 91 1.056
100 92 0.528
101 92 1.6
102 92 0.528
106 92 0.66
107 92 2.0
108 92 0.66
109 92 0.528
110 92 1.6
111 92 0.528
112 92 0.528
113 92 1.6
114 92 0.528
100 93 1.056
101 93 0.528
102 93 1.6
106 93 1.32
107 93 0.66
108 93 2.0
109 93 1.056
110 93 0.528
111 93 1.6
112 93 1.056
113 93 0.528
114 93 1.6
115 94 1.6
116 94 0.528
117 94 1.056
118 94 1.6
119 94 0.528
120 94 1.056
121 94 0.6
122 94 0.198
123 94 0.396
115 95 0.528
116 95 1.6
117 95 0.528
118 95 0.528
119 95 1.6
120 95 0.528
121 95 0.198
122 95 0.6
123 95 0.198
115 96 1.056
116 96 0.528
117 96 1.6
118 96 1.056
119 96 0.528
120 96 1.6
121 96 0.396
122 96 0.198
123 96 0.6
100 97 2.0
101 97 0.66
102 97 1.32
109 97 1.0
110 97 0.33
111 97 0.66
121 97 0.6
122 97 0.198
123 97 0.396
124 97 0.6
125 97 0.198
126 97 0.396
100 98 0.66
101 98 2.0
102 98 0.66
109 98 0.33
110 98 1.0
111 98 0.33
121 98 0.198
122 98 0.6
123 98 0.198
124 98 0.198
125 98 0.6
126 98 0.198
100 99 1.32
101 99 0.66
102 99 2.0
109 99 0.66
110 99 0.33
111 99 1.0
121 99 0.396
122 99 0.198
123 99 0.6
124 99 0.396
125 99 0.198
126 99 0.6
109 100 2.0
110 100 0.66
111 100 1.32
112 100 1.0
113 100 0.33
114 100 0.66
121 100 0.6
122 100 0.198
123 100 0.396
124 100 0.6
125 100 0.198
126 100 0.396
127 100 0.6
128 100 0.198
129 100 0.396
109 101 0.66
110 101 2.0
111 101 0.66
112 101 0.33
113 101 1.0
114 101 0.33
121 101 0.198
122 101 0.6
123 101 0.198
124 101 0.198
125 101 0.6
126 101 0.198
127 101 0.198
128 101 0.6
129 101 0.198
109 102 1.32
110 102 0.66
111 102 2.0
112 102 0.66
113 102 0.33
114 102 1.0
121 102 0.396
122 102 0.198
123 102 0.6
124 102 0.396
125 102 0.198
126 102 0.6
127 102 0.396
128 102 0.198
129 102 0.6
130 103 1.6
131 103 0.528
132 103 1.056
133 103 1.6
134 103 0.528
135 103 1.056
130 104 0.528
131 104 1.6
132 104 0.528
133 104 0.528
134 104 1.6
135 104 0.528
130 105 1.056
131 105 0.528
132 105 1.6
133 105 1.056
134 105 0.528
135 105 1.6
109 106 1.6
110 106 0.528
111 106 1.056
112 106 1.6
113 106 0.528
114 106 1.056
109 107 0.528
110 107 1.6
111 107 0.528
112 107 0.528
113 107 1.6
114 107 0.528
109 108 1.056
110 108 0.528
111 108 1.6
112 108 1.056
113 108 0.528
114 108 1.6
112 109 2.0
113 109 0.66
114 109 1.32
124 109 0.6
125 109 0.198
126 109 0.396
127 109 0.6
128 109 0.198
129 109 0.396
136 109 0.6
137 109 0.198
138 109 0.396
112 110 0.66
113 110 2.0
114 110 0.66
124 110 0.198
125 110 0.6
126 110 0.198
127 110 0.198
128 110 0.6
129 110 0.198
136 110 0.198
137 110 0.6
138 110 0.198
112 111 1.32
113 111 0.66
114 111 2.0
124 111 0.396
125 111 0.198
126 111 0.6
127 111 0.396
128 111 0.198
129 111 0.6
136 111 0.396
137 111 0.198
138 111 0.6
127 112 0.6
128 112 0.198
129 112 0.396
136 112 0.6
137 112 0.198
138 112 0.396
127 113 0.198
128 113 0.6
129 113 0.198
136 113 0.198
137 113 0.6
138 113 0.198
127 114 0.396
128 114 0.198
129 114 0.6
136 114 0.396
137 114 0.198
138 114 0.6
118 115 2.0
119 115 0.66
120 115 1.32
133 115 1.0
134 115 0.33
135 115 0.66
139 115 0.6
140 115 0.198
141 115 0.396
142 115 0.6
143 115 0.198
144 115 0.396
145 115 0.6
146 115 0.198
147 115 0.396
118 116 0.66
119 116 2.0
120 116 0.66
133 116 0.33
134 116 1.0
135 116 0.33
139 116 0.198
140 116 0.6
141 116 0.198
142 116 0.198
143 116 0.6
144 116 0.198
145 116 0.198
146 116 0.6
147 116 0.198
118 117 1.32
119 117 0.66
120 117 2.0
133 117 0.66
134 117 0.33
135 117 1.0
139 117 0.396
140 117 0.198
141 117 0.6
142 117 0.396
143 117 0.198
144 117 0.6
145 117 0.396
146 117 0.198
147 117 0.6
130 118 1.0
131 118 0.33
132 118 0.66
133 118 2.0
134 118 0.66
135 118 1.32
139 118 0.6
140 118 0.198
141 118 0.396
142 118 0.6
143 118 0.198
144 118 0.396
148 118 0.6
149 118 0.198
150 118 0.396
130 119 0.33
131 119 1.0
132 119 0.33
133 119 0.66
134 119 2.0
135 119 0.66
139 119 0.198
140 119 0.6
141 119 0.198
142 119 0.198
143 119 0.6
144 119 0.198
148 119 0.198
149 119 0.6
150 119 0.198
130 120 0.66
131 120 0.33
132 120 1.0
133 120 1.32
134 120 0.66
135 120 2.0
139 120 0.396
140 120 0.198
141 120 0.6
142 120 0.396
143 120 0.198
144 120 0.6
148 120 0.396
149 120 0.198
150 120 0.6
124 121 2.0
125 121 0.66
126 121 1.32
127 121 1.0
128 121 0.33
129 121 0.66
145 121 1.6
146 121 0.528
147 121 1.056
151 121 1.6
152 121 0.528
153 121 1.056
124 122 0.66
125 122 2.0
126 122 0.66
127 122 0.33
128 122 1.0
129 122 0.33
145 122 0.528
146 122 1.6
147 122 0.528
151 122 0.528
152 122 1.6
153 122 0.528
124 123 1.32
125 123 0.66
126 123 2.0
127 123 0.66
128 123 0.33
129 123 1.0
145 123 1.056
146 123 0.528
147 123 1.6
151 123 1.056
152 123 0.528
153 123 1.6
127 124 2.0
128 124 0.66
129 124 1.32
136 124 1.0
137 124 0.33
138 124 0.66
145 124 1.6
146 124 0.528
147 124 1.056
151 124 1.6
152 124 0.528
153 124 1.056
154 124 1.6
155 124 0.528
156 124 1.056
127 125 0.66
128 125 2.0
129 125 0.66
136 125 0.33
137 125 1.0
138 125 0.33
145 125 0.528
146 125 1.6
147 125 0.528
151 125 0.528
152 125 1.6
153 125 0.528
154 125 0.528
155 125 1.6
156 125 0.528
127 126 1.32
128 126 0.66
129 126 2.0
136 126 0.66
137 126 0.33
138 126 1.0
145 126 1.056
146 126 0.528
147 126 1.6
151 126 1.056
152 126 0.528
153 126 1.6
154 126 1.056
155 126 0.528
156 126 1.6
136 127 2.0
137 127 0.66
138 127 1.32
151 127 1.6
152 127 0.528
153 127 1.056
154 127 1.6
155 127 0.528
156 127 1.056
157 127 1.6
158 127 0.528
159 127 1.056
136 128 0.66
137 128 2.0
138 128 0.66
151 128 0.528
152 128 1.6
153 128 0.528
154 128 0.528
155 128 1.6
156 128 0.528
157 128 0.528
158 128 1.6
159 128 0.528
136 129 1.32
137 129 0.66
138 129 2.0
151 129 1.056
152 129 0.528
153 129 1.6
154 129 1.056
155 129 0.528
156 129 1.6
157 129 1.056
158 129 0.528
159 129 1.6
133 130 2.0
134 130 0.66
135 130 1.32
148 130 0.6
149 130 0.198
150 130 0.396
160 130 0.6
161 130 0.198
162 130 0.396
133 131 0.66
134 131 2.0
135 131 0.66
148 131 0.198
149 131 0.6
150 131 0.198
160 131 0.198
161 131 0.6
162 131 0.198
133 132 1.32
134 132 0.66
135 132 2.0
148 132 0.396
149 132 0.198
150 132 0.6
160 132 0.396
161 132 0.198
162 132 0.6
139 133 0.6
140 133 0.198
141 133 0.396
148 133 0.6
149 133 0.198
150 133 0.396
160 133 0.6
161 133 0.198
162 133 0.396
139 134 0.198
140 134 0.6
141 134 0.198
148 134 0.198
149 134 0.6
150 134 0.198
160 134 0.198
161 134 0.6
162 134 0.198
139 135 0.396
140 135 0.198
141 135 0.6
148 135 0.396
149 135 0.198
150 135 0.6
160 135 0.396
161 135 0.198
162 135 0.6
154 136 1.6
155 136 0.528
156 136 1.056
157 136 1.6
158 136 0.528
159 136 1.056
154 137 0.528
155 137 1.6
156 137 0.528
157 137 0.528
158 137 1.6
159 137 0.528
154 138 1.056
155 138 0.528
156 138 1.6
157 138 1.056
158 138 0.528
159 138 1.6
142 139 2.0
143 139 0.66
144 139 1.32
148 139 2.0
149 139 0.66
150 139 1.32
160 139 1.0
161 139 0.33
162 139 0.66
163 139 1.6
164 139 0.528
165 139 1.056
166 139 1.6
167 139 0.528
168 139 1.056
169 139 1.6
170 139 0.528
171 139 1.056
142 140 0.66
143 140 2.0
144 140 0.66
148 140 0.66
149 140 2.0
150 140 0.66
160 140 0.33
161 140 1.0
162 140 0.33
163 140 0.528
164 140 1.6
165 140 0.528
166 140 0.528
167 140 1.6
168 140 0.528
169 140 0.528
170 140 1.6
171 140 0.528
142 141 1.32
143 141 0.66
144 141 2.0
148 141 1.32
149 141 0.66
150 141 2.0
160 141 0.66
161 141 0.33
162 141 1.0
163 141 1.056
164 141 0.528
165 141 1.6
166 141 1.056
167 141 0.528
168 141 1.6
169 141 1.056
170 141 0.528
171 141 1.6
148 142 1.0
149 142 0.33
150 142 0.66
163 142 1.6
164 142 0.528
165 142 1.056
169 142 1.6
170 142 0.528
171 142 1.056
172 142 0.6
173 142 0.198
174 142 0.396
148 143 0.33
149 143 1.0
150 143 0.33
163 143 0.528
164 143 1.6
165 143 0.528
169 143 0.528
170 143 1.6
171 143 0.528
172 143 0.198
173 143 0.6
174 143 0.198
148 144 0.66
149 144 0.33
150 144 1.0
163 144 1.056
164 144 0.528
165 144 1.6
169 144 1.056
170 144 0.528
171 144 1.6
172 144 0.396
173 144 0.198
174 144 0.6
151 145 2.0
152 145 0.66
153 145 1.32
154 145 1.0
155 145 0.33
156 145 0.66
172 145 0.6
173 145 0.198
174 145 0.396
175 145 0.6
176 145 0.198
177 145 0.396
151 146 0.66
152 146 2.0
153 146 0.66
154 146 0.33
155 146 1.0
156 146 0.33
172 146 0.198
173 146 0.6
174 146 0.198
175 146 0.198
176 146 0.6
177 146 0.198
151 147 1.32
152 147 0.66
153 147 2.0
154 147 0.66
155 147 0.33
156 147 1.0
172 147 0.396
173 147 0.198
174 147 0.6
175 147 0.396
176 147 0.198
177 147 0.6
160 148 2.0
161 148 0.66
162 148 1.32
163 148 1.6
164 148 0.528
165 148 1.056
166 148 1.6
167 148 0.528
168 148 1.056
178 148 1.6
179 148 0.528
180 148 1.056
160 149 0.66
161 149 2.0
162 149 0.66
163 149 0.528
164 149 1.6
165 149 0.528
166 149 0.528
167 149 1.6
168 149 0.528
178 149 0.528
179 149 1.6
180 149 0.528
160 150 1.32
161 150 0.66
162 150 2.0
163 150 1.056
164 150 0.528
165 150 1.6
166 150 1.056
167 150 0.528
168 150 1.6
178 150 1.056
179 150 0.528
180 150 1.6
154 151 2.0
155 151 0.66
156 151 1.32
157 151 1.0
158 151 0.33
159 151 0.66
172 151 0.6
173 151 0.198
174 151 0.396
175 151 0.6
176 151 0.198
177 151 0.396
181 151 0.6
182 151 0.198
183 151 0.396
154 152 0.66
155 152 2.0
156 152 0.66
157 152 0.33
158 152 1.0
159 152 0.33
172 152 0.198
173 152 0.6
174 152 0.198
175 152 0.198
176 152 0.6
177 152 0.198
181 152 0.198
182 152 0.6
183 152 0.198
154 153 1.32
155 153 0.66
156 153 2.0
157 153 0.66
158 153 0.33
159 153 1.0
172 153 0.396
173 153 0.198
174 153 0.6
175 153 0.396
176 153 0.198
177 153 0.6
181 153 0.396
182 153 0.198
183 153 0.6
157 154 2.0
158 154 0.66
159 154 1.32
175 154 0.6
176 154 0.198
177 154 0.396
181 154 0.6
182 154 0.198
183 154 0.396
184 154 0.6
185 154 0.198
186 154 0.396
157 155 0.66
158 155 2.0
159 155 0.66
175 155 0.198
176 155 0.6
177 155 0.198
181 155 0.198
182 155 0.6
183 155 0.198
184 155 0.198
185 155 0.6
186 155 0.198
157 156 1.32
158 156 0.66
159 156 2.0
175 156 0.396
176 156 0.198
177 156 0.6
181 156 0.396
182 156 0.198
183 156 0.6
184 156 0.396
185 156 0.198
186 156 0.6
181 157 0.6
182 157 0.198
183 157 0.396
184 157 0.6
185 157 0.198
186 157 0.396
181 158 0.198
182 158 0.6
183 158 0.198
184 158 0.198
185 158 0.6
186 158 0.198
181 159 0.396
182 159 0.198
183 159 0.6
184 159 0.396
185 159 0.198
186 159 0.6
166 160 1.6
167 160 0.528
168 160 1.056
178 160 1.6
179 160 0.528
180 160 1.056
166 161 0.528
167 161 1.6
168 161 0.528
178 161 0.528
179 161 1.6
180 161 0.528
166 162 1.056
167 162 0.528
168 162 1.6
178 162 1.056
179 162 0.528
180 162 1.6
166 163 2.0
167 163 0.66
168 163 1.32
169 163 2.0
170 163 0.66
171 163 1.32
178 163 1.0
179 163 0.33
180 163 0.66
166 164 0.66
167 164 2.0
168 164 0.66
169 164 0.66
170 164 2.0
171 164 0.66
178 164 0.33
179 164 1.0
180 164 0.33
166 165 1.32
167 165 0.66
168 165 2.0
169 165 1.32
170 165 0.66
171 165 2.0
178 165 0.66
179 165 0.33
180 165 1.0
169 166 1.0
170 166 0.33
171 166 0.66
178 166 2.0
179 166 0.66
180 166 1.32
169 167 0.33
170 167 1.0
171 167 0.33
178 167 0.66
179 167 2.0
180 167 0.66
169 168 0.66
170 168 0.33
171 168 1.0
178 168 1.32
179 168 0.66
180 168 2.0
187 169 0.6
188 169 0.198
189 169 0.396
187 170 0.198
188 170 0.6
189 170 0.198
187 171 0.396
188 171 0.198
189 171 0.6
175 172 2.0
176 172 0.66
177 172 1.32
181 172 1.0
182 172 0.33
183 172 0.66
187 172 1.6
188 172 0.528
189 172 1.056
190 172 1.6
191 172 0.528
192 172 1.056
175 173 0.66
176 173 2.0
177 173 0.66
181 173 0.33
182 173 1.0
183 173 0.33
187 173 0.528
188 173 1.6
189 173 0.528
190 173 0.528
191 173 1.6
192 173 0.528
175 174 1.32
176 174 0.66
177 174 2.0
181 174 0.66
182 174 0.33
183 174 1.0
187 174 1.056
188 174 0.528
189 174 1.6
190 174 1.056
191 174 0.528
192 174 1.6
181 175 2.0
182 175 0.66
183 175 1.32
184 175 1.0
185 175 0.33
186 175 0.66
187 175 1.6
188 175 0.528
189 175 1.056
190 175 1.6
191 175 0.528
192 175 1.056
193 175 1.6
194 175 0.528
195 175 1.056
181 176 0.66
182 176 2.0
183 176 0.66
184 176 0.33
185 176 1.0
186 176 0.33
187 176 0.528
188 176 1.6
189 176 0.528
190 176 0.528
191 176 1.6
192 176 0.528
193 176 0.528
194 176 1.6
195 176 0.528
181 177 1.32
182 177 0.66
183 177 2.0
184 177 0.66
185 177 0.33
186 177 1.0
187 177 1.056
188 177 0.528
189 177 1.6
190 177 1.056
191 177 0.528
192 177 1.6
193 177 1.056
194 177 0.528
195 177 1.6
184 181 2.0
185 181 0.66
186 181 1.32
190 181 1.6
191 181 0.528
192 181 1.056
193 181 1.6
194 181 0.528
195 181 1.056
196 181 1.6
197 181 0.528
198 181 1.056
184 182 0.66
185 182 2.0
186 182 0.66
190 182 0.528
191 182 1.6
192 182 0.528
193 182 0.528
194 182 1.6
195 182 0.528
196 182 0.528
197 182 1.6
198 182 0.528
184 183 1.32
185 183 0.66
186 183 2.0
190 183 1.056
191 183 0.528
192 183 1.6
193 183 1.056
194 183 0.528
195 183 1.6
196 183 1.056
197 183 0.528
198 183 1.6
193 184 1.6
194 184 0.528
195 184 1.056
196 184 1.6
197 184 0.528
198 184 1.056
193 185 0.528
194 185 1.6
195 185 0.528
196 185 0.528
197 185 1.6
198 185 0.528
193 186 1.056
194 186 0.528
195 186 1.6
196 186 1.056
197 186 0.528
198 186 1.6
190 187 2.0
191 187 0.66
192 187 1.32
193 187 1.0
194 187 0.33
195 187 0.66
190 188 0.66
191 188 2.0
192 188 0.66
193 188 0.33
194 188 1.0
195 188 0.33
190 189 1.32
191 189 0.66
192 189 2.0
193 189 0.66
194 189 0.33
195 189 1.0
193 190 2.0
194 190 0.66
195 190 1.32
196 190 1.0
197 190 0.33
198 190 0.66
193 191 0.66
194 191 2.0
195 191 0.66
196 191 0.33
197 191 1.0
198 191 0.33
193 192 1.32
194 192 0.66
195 192 2.0
196 192 0.66
197 192 0.33
198 192 1.0
196 193 2.0
197 193 0.66
198 193 1.32
196 194 0.66
197 194 2.0
198 194 0.66
196 195 1.32
197 195 0.66
198 195 2.0
200 199 2.0
201 199 0.66
202 199 1.32
203 199 1.7
204 199 0.561
205 199 1.122
203 200 2.0
204 200 0.66
205 200 1.32
206 200 0.66
207 200 1.32
208 200 1.7
209 200 0.561
210 200 1.122
203 201 0.66
204 201 2.0
205 201 0.66
206 201 2.0
207 201 0.66
208 201 0.561
209 201 1.7
210 201 0.561
203 202 1.32
204 202 0.66
205 202 2.0
206 202 0.66
207 202 2.0
208 202 1.122
209 202 0.561
210 202 1.7
206 203 0.561
207 203 1.122
208 203 2.0
209 203 0.66
210 203 1.32
211 203 1.7
212 203 0.561
213 203 1.122
206 204 1.7
207 204 0.561
208 204 0.66
209 204 2.0
210 204 0.66
211 204 0.561
212 204 1.7
213 204 0.561
206 205 0.561
207 205 1.7
208 205 1.32
209 205 0.66
210 205 2.0
211 205 1.122
212 205 0.561
213 205 1.7
211 208 2.0
212 208 0.66
213 208 1.32
214 208 1.7
215 208 0.561
216 208 1.122
211 209 0.66
212 209 2.0
213 209 0.66
214 209 0.561
215 209 1.7
216 209 0.561
211 210 1.32
212 210 0.66
213 210 2.0
214 210 1.122
215 210 0.561
216 210 1.7
214 211 2.0
215 211 0.66
216 211 1.32
217 211 1.7
218 211 0.561
219 211 1.122
214 212 0.66
215 212 2.0
216 212 0.66
217 212 0.561
218 212 1.7
219 212 0.561
214 213 1.32
215 213 0.66
216 213 2.0
217 213 1.122
218 213 0.561
219 213 1.7
217 214 2.0
218 214 0.66
219 214 1.32
220 214 1.7
221 214 0.561
222 214 1.122
217 215 0.66
218 215 2.0
219 215 0.66
220 215 0.561
221 215 1.7
222 215 0.561
217 216 1.32
218 216 0.66
219 216 2.0
220 216 1.122
221 216 0.561
222 216 1.7
220 217 2.0
221 217 0.66
222 217 1.32
223 217 1.7
224 217 0.561
225 217 1.122
220 218 0.66
221 218 2.0
222 218 0.66
223 218 0.561
224 218 1.7
225 218 0.561
220 219 1.32
221 219 0.66
222 219 2.0
223 219 1.122
224 219 0.561
225 219 1.7
223 220 2.0
224 220 0.66
225 220 1.32
226 220 1.7
227 220 0.561
228 220 1.122
223 221 0.66
224 221 2.0
225 221 0.66
226 221 0.561
227 221 1.7
228 221 0.561
223 222 1.32
224 222 0.66
225 222 2.0
226 222 1.122
227 222 0.561
228 222 1.7
226 223 2.0
227 223 0.66
228 223 1.32
229 223 1.7
230 223 0.561
231 223 1.122
226 224 0.66
227 224 2.0
228 224 0.66
229 224 0.561
230 224 1.7
231 224 0.561
226 225 1.32
227 225 0.66
228 225 2.0
229 225 1.122
230 225 0.561
231 225 1.7
229 226 2.0
230 226 0.66
231 226 1.32
232 226 1.7
233 226 0.561
234 226 1.122
229 227 0.66
230 227 2.0
231 227 0.66
232 227 0.561
233 227 1.7
234 227 0.561
229 228 1.32
230 228 0.66
231 228 2.0
232 228 1.122
233 228 0.561
234 228 1.7
232 229 2.0
233 229 0.66
234 229 1.32
235 229 1.7
236 229 0.561
237 229 1.122
232 230 0.66
233 230 2.0
234 230 0.66
235 230 0.561
236 230 1.7
237 230 0.561
232 231 1.32
233 231 0.66
234 231 2.0
235 231 1.122
236 231 0.561
237 231 1.7
235 232 2.0
236 232 0.66
237 232 1.32
235 233 0.66
236 233 2.0
237 233 0.66
235 234 1.32
236 234 0.66
237 234 2.0
0.0 # default value for linear coefficients in objective
0 # number of non-default linear coefficients in objective
0.0 # objective constant
395 # number of linear terms in all constraints
1 1 1.0
1 17 1.0
1 18 1.0
1 238 1.0
2 2 1.0
2 3 1.0
2 4 1.0
2 239 1.0
3 5 1.0
3 6 1.0
3 7 1.0
3 240 1.0
4 19 1.0
4 20 1.0
4 21 1.0
4 241 1.0
5 8 1.0
5 9 1.0
5 10 1.0
5 242 1.0
6 11 1.0
6 12 1.0
6 13 1.0
6 243 1.0
7 22 1.0
7 23 1.0
7 24 1.0
7 244 1.0
8 25 1.0
8 26 1.0
8 27 1.0
8 245 1.0
9 28 1.0
9 29 1.0
9 30 1.0
9 246 1.0
10 31 1.0
10 32 1.0
10 33 1.0
10 247 1.0
11 55 1.0
11 56 1.0
11 57 1.0
11 248 1.0
12 37 1.0
12 38 1.0
12 39 1.0
12 249 1.0
13 58 1.0
13 59 1.0
13 60 1.0
13 250 1.0
14 61 1.0
14 62 1.0
14 63 1.0
14 251 1.0
15 67 1.0
15 68 1.0
15 69 1.0
15 252 1.0
16 76 1.0
16 77 1.0
16 78 1.0
16 253 1.0
17 103 1.0
17 104 1.0
17 105 1.0
17 254 1.0
18 94 1.0
18 95 1.0
18 96 1.0
18 255 1.0
19 115 1.0
19 116 1.0
19 117 1.0
19 256 1.0
20 118 1.0
20 119 1.0
20 120 1.0
20 257 1.0
21 160 1.0
21 161 1.0
21 162 1.0
21 258 1.0
22 130 1.0
22 131 1.0
22 132 1.0
22 259 1.0
23 142 1.0
23 143 1.0
23 144 1.0
23 260 1.0
24 139 1.0
24 140 1.0
24 141 1.0
24 261 1.0
25 148 1.0
25 149 1.0
25 150 1.0
25 262 1.0
26 133 1.0
26 134 1.0
26 135 1.0
26 263 1.0
27 169 1.0
27 170 1.0
27 171 1.0
27 264 1.0
28 163 1.0
28 164 1.0
28 165 1.0
28 265 1.0
29 166 1.0
29 167 1.0
29 168 1.0
29 266 1.0
30 178 1.0
30 179 1.0
30 180 1.0
30 267 1.0
31 199 1.0
31 206 1.0
31 207 1.0
31 268 1.0
32 200 1.0
32 201 1.0
32 202 1.0
32 269 1.0
33 203 1.0
33 204 1.0
33 205 1.0
33 270 1.0
34 208 1.0
34 209 1.0
34 210 1.0
34 271 1.0
35 211 1.0
35 212 1.0
35 213 1.0
35 272 1.0
36 214 1.0
36 215 1.0
36 216 1.0
36 273 1.0
37 217 1.0
37 218 1.0
37 219 1.0
37 274 1.0
38 220 1.0
38 221 1.0
38 222 1.0
38 275 1.0
39 223 1.0
39 224 1.0
39 225 1.0
39 276 1.0
40 226 1.0
40 227 1.0
40 228 1.0
40 277 1.0
41 229 1.0
41 230 1.0
41 231 1.0
41 278 1.0
42 232 1.0
42 233 1.0
42 234 1.0
42 279 1.0
43 235 1.0
43 236 1.0
43 237 1.0
43 280 1.0
44 79 1.0
44 83 1.0
44 84 1.0
44 281 1.0
45 80 1.0
45 81 1.0
45 82 1.0
45 282 1.0
46 40 1.0
46 41 1.0
46 42 1.0
46 283 1.0
47 46 1.0
47 47 1.0
47 48 1.0
47 284 1.0
48 85 1.0
48 86 1.0
48 87 1.0
48 285 1.0
49 43 1.0
49 44 1.0
49 45 1.0
49 286 1.0
50 49 1.0
50 50 1.0
50 51 1.0
50 287 1.0
51 14 1.0
51 15 1.0
51 16 1.0
51 288 1.0
52 88 1.0
52 89 1.0
52 90 1.0
52 289 1.0
53 70 1.0
53 71 1.0
53 72 1.0
53 290 1.0
54 52 1.0
54 53 1.0
54 54 1.0
54 291 1.0
55 34 1.0
55 35 1.0
55 36 1.0
55 292 1.0
56 106 1.0
56 107 1.0
56 108 1.0
56 293 1.0
57 91 1.0
57 92 1.0
57 93 1.0
57 294 1.0
58 73 1.0
58 74 1.0
58 75 1.0
58 295 1.0
59 64 1.0
59 65 1.0
59 66 1.0
59 296 1.0
60 112 1.0
60 113 1.0
60 114 1.0
60 297 1.0
61 109 1.0
61 110 1.0
61 111 1.0
61 298 1.0
62 100 1.0
62 101 1.0
62 102 1.0
62 299 1.0
63 97 1.0
63 98 1.0
63 99 1.0
63 300 1.0
64 136 1.0
64 137 1.0
64 138 1.0
64 301 1.0
65 127 1.0
65 128 1.0
65 129 1.0
65 302 1.0
66 124 1.0
66 125 1.0
66 126 1.0
66 303 1.0
67 121 1.0
67 122 1.0
67 123 1.0
67 304 1.0
68 157 1.0
68 158 1.0
68 159 1.0
68 305 1.0
69 154 1.0
69 155 1.0
69 156 1.0
69 306 1.0
70 151 1.0
70 152 1.0
70 153 1.0
70 307 1.0
71 145 1.0
71 146 1.0
71 147 1.0
71 308 1.0
72 184 1.0
72 185 1.0
72 186 1.0
72 309 1.0
73 181 1.0
73 182 1.0
73 183 1.0
73 310 1.0
74 175 1.0
74 176 1.0
74 177 1.0
74 311 1.0
75 172 1.0
75 173 1.0
75 174 1.0
75 312 1.0
76 196 1.0
76 197 1.0
76 198 1.0
76 313 1.0
77 193 1.0
77 194 1.0
77 195 1.0
77 314 1.0
78 190 1.0
78 191 1.0
78 192 1.0
78 315 1.0
79 187 1.0
79 188 1.0
79 189 1.0
79 316 1.0
80 238 1.0
80 239 1.0
80 240 1.0
80 241 1.0
80 242 1.0
80 243 1.0
80 244 1.0
80 245 1.0
80 246 1.0
80 247 1.0
80 248 1.0
80 249 1.0
80 250 1.0
80 251 1.0
80 252 1.0
80 253 1.0
80 254 1.0
80 255 1.0
80 256 1.0
80 257 1.0
80 258 1.0
80 259 1.0
80 260 1.0
80 261 1.0
80 262 1.0
80 263 1.0
80 264 1.0
80 265 1.0
80 266 1.0
80 267 1.0
80 268 1.0
80 269 1.0
80 270 1.0
80 271 1.0
80 272 1.0
80 273 1.0
80 274 1.0
80 275 1.0
80 276 1.0
80 277 1.0
80 278 1.0
80 279 1.0
80 280 1.0
80 281 1.0
80 282 1.0
80 283 1.0
80 284 1.0
80 285 1.0
80 286 1.0
80 287 1.0
80 288 1.0
80 289 1.0
80 290 1.0
80 291 1.0
80 292 1.0
80 293 1.0
80 294 1.0
80 295 1.0
80 296 1.0
80 297 1.0
80 298 1.0
80 299 1.0
80 300 1.0
80 301 1.0
80 302 1.0
80 303 1.0
80 304 1.0
80 305 1.0
80 306 1.0
80 307 1.0
80 308 1.0
80 309 1.0
80 310 1.0
80 311 1.0
80 312 1.0
80 313 1.0
80 314 1.0
80 315 1.0
80 316 1.0
1.79769313486232E+308 # value for infinity
1.0 # default left-hand-side value
1 # number of non-default left-hand-sides
80 0.0
1.0 # default right-hand-side value
1 # number of non-default right-hand-sides
80 0.0
0.0 # default variable primal value in starting point
0 # number of non-default variable primal values in starting point
0.0 # default constraint dual value in starting point
0 # number of non-default constraint dual values in starting point
0.0 # default variable bound dual value in starting point
0 # number of non-default variable bound dual values in starting point
0 # number of non-default variable names
0 # number of non-default constraint names
